HUN,8,6,282
0,23,5,29,2,25,4,23,3,24,1,21
3,26,5,25,1,27,0,29,4,22,2,27
5,21,3,27,2,23,4,24,0,25,1,23
0,22,3,27,2,24,5,21,4,25,1,29
4,22,5,24,2,29,0,26,3,30,1,21
0,25,2,23,1,28,4,23,5,22,3,23
5,24,0,30,2,23,3,27,1,22,4,24
4,30,0,28,1,24,3,24,2,24,5,25
